30 3000
1 498
2 496
3 494
4 491
5 478
6 470
7 455
8 434
9 428
10 425
11 418
12 414
13 411
14 409
15 403
16 402
17 401
18 379
19 379
20 378
21 357
22 346
23 336
24 328
25 326
26 319
27 315
28 314
29 310
30 304
